
# For a single processor calculation
variable T equal 300 # Simulation temperature
variable salt equal 100.0 # Salt concentration [mM]

# Random number seed for Langevin integrator
variable random equal 12345

# Specify the different interaction styles
bond_style      list in00_bond.list
angle_style     hybrid list in00_angl.list stacking/3spn2
dihedral_style  list    in00_dihe.list
# pair_stype 3spn2 [dna type] [temperature] [salt concentration (mM)] [short range cutoff] [Coulombic cutoff]
pair_style      hybrid/overlay 3spn2 bdna/curv ${T} ${salt} 18.0 50.0
pair_style      hybrid/overlay 3spn2 bdna/curv 300 ${salt} 18.0 50.0
pair_style      hybrid/overlay 3spn2 bdna/curv 300 100 18.0 50.0

# Periodic boundary conditions
boundary p p p

# Turn on Newton's 2nd law
newton on  #yes

# Read in the configuration
read_data bdna_curv_conf.in
  orthogonal box = (-124.384 -124.384 -124.384) to (124.384 124.384 124.384)
  1 by 1 by 1 MPI processor grid
  reading atoms ...
  190 atoms
  scanning bonds ...
  2 = max bonds/atom
  scanning angles ...
  3 = max angles/atom
  scanning dihedrals ...
  2 = max dihedrals/atom
  reading bonds ...
  188 bonds
  reading angles ...
  308 angles
  reading dihedrals ...
  244 dihedrals
  3 = max # of 1-2 neighbors
  4 = max # of 1-3 neighbors
  6 = max # of 1-4 neighbors
  9 = max # of special neighbors

# Specify the pair coefficients
pair_coeff  1   1   3spn2   0.239006    4.500000
pair_coeff  2   2   3spn2   0.239006    6.200000
pair_coeff  3   3   3spn2   0.239006    5.400000
pair_coeff  4   4   3spn2   0.239006    7.100000
pair_coeff  5   5   3spn2   0.239006    4.900000
pair_coeff  6   6   3spn2   0.239006    6.400000
pair_coeff  7   7   3spn2   0.239006    5.400000
pair_coeff  8   8   3spn2   0.239006    7.100000
pair_coeff  9   9   3spn2   0.239006    4.900000
pair_coeff  10  10  3spn2   0.239006    6.400000
pair_coeff  11  11  3spn2   0.239006    5.400000
pair_coeff  12  12  3spn2   0.239006    7.100000
pair_coeff  13  13  3spn2   0.239006    4.900000
pair_coeff  14  14  3spn2   0.239006    6.400000
pair_modify mix arithmetic
pair_coeff 1*17 15*17 none # Zeroing out other interactions

# Specify parameters for the neighbor list
neighbor	4.0 multi
neigh_modify    check yes

# A timestep of 0.02 ps
timestep 20.0

# Initialize velocities from a Gaussian distribution
velocity all create ${T} ${random} rot yes mom yes dist gaussian
velocity all create 300 ${random} rot yes mom yes dist gaussian
velocity all create 300 12345 rot yes mom yes dist gaussian

# Calculating the different components of the non-bonded energy
compute edna all pair 3spn2
variable ebp equal c_edna[1] # Base pairing energy
variable ecstk equal c_edna[2] # Cross stacking energy
variable eexcl equal c_edna[3] # Excluded volume energy
variable dna_ecoul equal c_edna[4] # DNA coulombic energy
variable nbp equal c_edna[5] # Number of base pairs

# Specifying the frequency of thermodynamic output
thermo 2000
thermo_style custom step v_nbp ebond eangle edihed v_ebp v_ecstk v_eexcl v_dna_ecoul temp

# Specifying a Langevin integrator to perform a simulation in the NVT ensemble
fix 1 all langevin ${T} ${T} 500 ${random} gjf yes
fix 1 all langevin 300 ${T} 500 ${random} gjf yes
fix 1 all langevin 300 300 500 ${random} gjf yes
fix 1 all langevin 300 300 500 12345 gjf yes
fix 2 all nve

# Write configuration to file
dump 1 all xyz 2000 traj.xyz

# Run X number of steps
run 50000
Memory usage per processor = 5.58975 Mbytes
Step nbp E_bond E_angle E_dihed ebp ecstk eexcl dna_ecou Temp 
       0           32 2.3737992e-12   -196.15685    -200.7648   -124.84339   -24.620906   0.05224247    10.347266          300 
    2000           23    15.729862   -135.54667   -186.44861    -107.4306    -21.61559   0.30878988    10.128859    302.67741 
    4000           24    26.133525   -121.97403   -182.11949   -104.73426   -21.874003   0.14929213    10.239529    265.64721 
    6000           22     25.02551   -123.87678   -185.83735   -101.35711   -24.909937   0.20094855    10.497999    302.50066 
    8000           24    21.449572   -121.02156   -180.47807   -107.66425   -23.532292  0.064200724    10.086496    295.73044 
   10000           29    22.643733    -111.1549   -177.32181   -112.12974    -24.50201   0.30636324    10.229809    289.63058 
   12000           27    27.367098   -110.03411   -178.69322   -110.81746   -23.214407   0.17342676    10.117523    294.17056 
   14000           24    31.808235   -119.51061   -181.06432   -106.15821   -22.791087   0.14324969    10.002305     314.7005 
   16000           21    26.259793   -120.26337    -182.0004   -98.280907   -22.457469   0.20304164    10.072705    283.30616 
   18000           26    23.644989   -119.74234   -183.28011   -107.60118   -21.882893  0.032770191    10.141342    319.13407 
   20000           26    22.974171   -121.78408   -185.02186   -108.57506   -24.887113   0.12876545    10.378613    284.39723 
   22000           26    24.637835   -117.01556   -181.26326   -103.70776   -22.117306  0.092689464    10.475209    270.36388 
   24000           26     25.12051   -111.69445   -182.81741   -110.88233   -22.252789   0.90361604    10.292959    275.11401 
   26000           27    30.949793    -122.0085   -183.69097   -108.71612   -21.587323   0.20821732    10.096922    298.51547 
   28000           20    21.143177   -110.29728   -185.96556    -104.6659   -23.302892  0.040712761    10.305175    314.78529 
   30000           26    29.595106   -107.51285   -180.02957    -111.0809    -25.59174   0.33041554    10.155108     299.9511 
   32000           22    25.998863   -120.48448   -186.98448    -99.83419   -22.415613   0.29518901    10.152839    297.03589 
   34000           26    25.339841   -117.17015   -187.05822   -105.96033   -21.663361    0.1809581    10.224856    282.88749 
   36000           24    23.809009    -113.4652   -183.89436   -106.96425   -19.439002   0.40910187    10.201642    269.63947 
   38000           26    28.929696   -109.27845   -183.37065   -109.54845   -20.430434   0.85892941    10.286654    289.86464 
   40000           22    19.939049   -127.77985   -181.97657   -105.09924   -23.044293     0.211754     10.23497    263.70426 
   42000           20    27.780144   -113.55885   -179.08098   -92.591017   -21.430192   0.32242486    10.519958    278.75237 
   44000           25    20.724616   -113.98472   -184.62587    -109.2541    -25.26236   0.26738364    10.368939    293.47764 
   46000           27    17.795812   -120.58218   -188.50357   -113.18481   -23.574229   0.23979755    10.117536    279.02854 
   48000           21    20.371797   -106.13297   -182.95887    -104.4318   -22.827457    1.0041148    10.086926    299.31355 
   50000           22    33.322091   -113.65178   -181.88169   -101.57225   -22.174172   0.24668436    10.063992    302.59478 
Loop time of 38.9274 on 1 procs for 50000 steps with 190 atoms

Pair  time (%) = 30.5391 (78.4513)
Bond  time (%) = 6.9454 (17.8419)
Neigh time (%) = 0.475762 (1.22218)
Comm  time (%) = 0.0857134 (0.220188)
Outpt time (%) = 0.00940431 (0.0241586)
Other time (%) = 0.872069 (2.24024)

Nlocal:    190 ave 190 max 190 min
Histogram: 1 0 0 0 0 0 0 0 0 0
Nghost:    63 ave 63 max 63 min
Histogram: 1 0 0 0 0 0 0 0 0 0
Neighs:    12874 ave 12874 max 12874 min
Histogram: 1 0 0 0 0 0 0 0 0 0

Total # of neighbors = 12874
Ave neighs/atom = 67.7579
Ave special neighs/atom = 7.13684
Neighbor list builds = 1104
Dangerous builds = 0

Please see the log.cite file for references relevant to this simulation

