
# Ensuring that neighboring base sites are included when simulating across many processors
communicate single cutoff 30.0

# For a single processor calculation
variable T equal 300 # Simulation temperature
variable salt equal 100.0 # Salt concentration [mM]

# Random number seed for Langevin integrator
variable random equal 12345

# Specify the different interaction styles
bond_style      class2
angle_style     hybrid harmonic stacking/3spn2
dihedral_style  3spn2
# pair_stype 3spn2 [dna type] [temperature] [salt concentration (mM)] [short range cutoff] [Coulombic cutoff]
pair_style      hybrid/overlay 3spn2 bdna ${T} ${salt} 18.0 20.0 coul/long 20.0 coul/diel 12 gauss/cut 12.0 gauss/cut 12.0 lj/cut 12.0
pair_style      hybrid/overlay 3spn2 bdna 300 ${salt} 18.0 20.0 coul/long 20.0 coul/diel 12 gauss/cut 12.0 gauss/cut 12.0 lj/cut 12.0
pair_style      hybrid/overlay 3spn2 bdna 300 100 18.0 20.0 coul/long 20.0 coul/diel 12 gauss/cut 12.0 gauss/cut 12.0 lj/cut 12.0

# Periodic boundary conditions
boundary p p p

# Turn on Newton's 2nd law
newton on  #yes

# Read in the configuration
read_data bdna_ions_conf.in
  orthogonal box = (-87.0688 -87.0688 -87.0688) to (87.0688 87.0688 87.0688)
  1 by 1 by 1 MPI processor grid
  reading atoms ...
  1079 atoms
  scanning bonds ...
  2 = max bonds/atom
  scanning angles ...
  3 = max angles/atom
  scanning dihedrals ...
  1 = max dihedrals/atom
  reading bonds ...
  188 bonds
  reading angles ...
  308 angles
  reading dihedrals ...
  120 dihedrals
  3 = max # of 1-2 neighbors
  4 = max # of 1-3 neighbors
  6 = max # of 1-4 neighbors
  9 = max # of special neighbors

# Specify the pair coefficients
pair_coeff  1   1   3spn2   0.239006    4.500000
pair_coeff  2   2   3spn2   0.239006    6.200000
pair_coeff  3   3   3spn2   0.239006    5.400000
pair_coeff  4   4   3spn2   0.239006    7.100000
pair_coeff  5   5   3spn2   0.239006    4.900000
pair_coeff  6   6   3spn2   0.239006    6.400000
pair_coeff  7   7   3spn2   0.239006    5.400000
pair_coeff  8   8   3spn2   0.239006    7.100000
pair_coeff  9   9   3spn2   0.239006    4.900000
pair_coeff  10  10  3spn2   0.239006    6.400000
pair_coeff  11  11  3spn2   0.239006    5.400000
pair_coeff  12  12  3spn2   0.239006    7.100000
pair_coeff  13  13  3spn2   0.239006    4.900000
pair_coeff  14  14  3spn2   0.239006    6.400000
pair_modify mix arithmetic

pair_coeff 1*17 15*17 none # Zeroing out other interactions

# Specifying the ion parameters from Freeman et al. JCP, 135:165104, 2011.
variable myDielectric equal 78
dielectric ${myDielectric}
dielectric 78


#Turnin off pair interactions from 3SPN2
pair_coeff 1 1*17 none
pair_coeff 2*17 15*17 none

# Apply LJ attraction between ion sites
pair_coeff 1 1 lj/cut  0.18379 6.86 # P-Na+
pair_coeff 1 15 lj/cut  0.02510 4.14 # P-Na+
pair_coeff 1 16 lj/cut  0.11950 4.87 # P-Mg#+
pair_coeff 1 17 lj/cut  0.08121 5.5425 # P-Cl-
pair_coeff 15 15 lj/cut 0.01121 2.43 # Na+-Na+
pair_coeff 15 16 lj/cut 0.04971 2.37 # Na+-Mg2+
pair_coeff 15 17 lj/cut 0.08387 3.1352 # Na+-Cl-
pair_coeff 16 16 lj/cut 0.89460 1.412 # Mg2+-Mg2+
pair_coeff 16 17 lj/cut 0.49737 4.74 # Mg2+-Cl-
pair_coeff 17 17 lj/cut 0.03585 4.045 # Cl--Cl-

# Apply coul/long between all ions (solve using ewald sum)
pair_coeff 1 1 coul/long
pair_coeff 1 15*17 coul/long
pair_coeff 15*17 15*17 coul/long

kspace_style pppm 1.0e-4

# Apply distance-dependent dielectric and correction factor
pair_coeff 1 1 coul/diel ${myDielectric}  6.86 0.5
pair_coeff 1 1 coul/diel 78  6.86 0.5
pair_coeff 1 15 coul/diel ${myDielectric} 3.44 1.25
pair_coeff 1 15 coul/diel 78 3.44 1.25
pair_coeff 1 16 coul/diel ${myDielectric} 3.75 1.00
pair_coeff 1 16 coul/diel 78 3.75 1.00
pair_coeff 1 17 coul/diel ${myDielectric}  4.2 0.5
pair_coeff 1 17 coul/diel 78  4.2 0.5
pair_coeff 15 15 coul/diel ${myDielectric} 2.7 0.57
pair_coeff 15 15 coul/diel 78 2.7 0.57
pair_coeff 15 16 coul/diel ${myDielectric} 2.37 0.5
pair_coeff 15 16 coul/diel 78 2.37 0.5
pair_coeff 15 17 coul/diel ${myDielectric} 3.9 2.06
pair_coeff 15 17 coul/diel 78 3.9 2.06
pair_coeff 16 16 coul/diel ${myDielectric} 1.412 0.5
pair_coeff 16 16 coul/diel 78 1.412 0.5
pair_coeff 16 17 coul/diel ${myDielectric} 4.48 0.57
pair_coeff 16 17 coul/diel 78 4.48 0.57
pair_coeff 17 17 coul/diel ${myDielectric} 4.2 0.56
pair_coeff 17 17 coul/diel 78 4.2 0.56

# Add hydration barriers
# First set of barriers (H r sigma)
pair_coeff 1 15 gauss/cut 1 3.15488 4.1 0.57
pair_coeff 1 16 gauss/cut 1 1.29063 6.1 0.5
pair_coeff 1 17 gauss/cut 1 0.83652 6.7 1.5
pair_coeff 15 15 gauss/cut 1 0.17925 5.8 0.57
pair_coeff 15 17 gauss/cut 1 5.49713 3.3 0.57
pair_coeff 16 17 gauss/cut 1 1.09943 5.48 0.44
pair_coeff 17 17 gauss/cut 1 0.23901 6.2 0.5

# Second set of barriers
pair_coeff 1 15  gauss/cut 2 0.47801 6.5 0.4
pair_coeff 1 16 gauss/cut 2 0.97992 8.3 1.2
pair_coeff 15 17 gauss/cut 2 0.47801 5.6 0.4
pair_coeff 16 17 gauss/cut 2 0.05975  8.16 0.35

# Specifying the mixing rules for cross interactions between the pair styles (excluded volume)
pair_coeff 1 2 lj/cut 0.239000 5.350000 6.005172
pair_coeff 1 3 lj/cut 0.239000 4.950000 5.556187
pair_coeff 1 4 lj/cut 0.239000 5.800000 6.510280
pair_coeff 1 5 lj/cut 0.239000 4.700000 5.275572
pair_coeff 1 6 lj/cut 0.239000 5.450000 6.117418
pair_coeff 1 7 lj/cut 0.239000 4.950000 5.556187
pair_coeff 1 8 lj/cut 0.239000 5.800000 6.510280
pair_coeff 1 9 lj/cut 0.239000 4.700000 5.275572
pair_coeff 1 10 lj/cut 0.239000 5.450000 6.117418
pair_coeff 1 11 lj/cut 0.239000 4.950000 5.556187
pair_coeff 1 12 lj/cut 0.239000 5.800000 6.510280
pair_coeff 1 13 lj/cut 0.239000 4.700000 5.275572
pair_coeff 1 14 lj/cut 0.239000 5.450000 6.117418
pair_coeff 2 15 lj/cut 0.239000 4.315000 4.843424
pair_coeff 3 15 lj/cut 0.239000 3.915000 4.394439
pair_coeff 4 15 lj/cut 0.239000 4.765000 5.348532
pair_coeff 5 15 lj/cut 0.239000 3.665000 4.113823
pair_coeff 6 15 lj/cut 0.239000 4.415000 4.955670
pair_coeff 7 15 lj/cut 0.239000 3.915000 4.394439
pair_coeff 8 15 lj/cut 0.239000 4.765000 5.348532
pair_coeff 9 15 lj/cut 0.239000 3.665000 4.113823
pair_coeff 10 15 lj/cut 0.239000 4.415000 4.955670
pair_coeff 11 15 lj/cut 0.239000 3.915000 4.394439
pair_coeff 12 15 lj/cut 0.239000 4.765000 5.348532
pair_coeff 13 15 lj/cut 0.239000 3.665000 4.113823
pair_coeff 14 15 lj/cut 0.239000 4.415000 4.955670
pair_coeff 2 16 lj/cut 0.239000 3.806000 4.272091
pair_coeff 3 16 lj/cut 0.239000 3.406000 3.823106
pair_coeff 4 16 lj/cut 0.239000 4.256000 4.777198
pair_coeff 5 16 lj/cut 0.239000 3.156000 3.542490
pair_coeff 6 16 lj/cut 0.239000 3.906000 4.384337
pair_coeff 7 16 lj/cut 0.239000 3.406000 3.823106
pair_coeff 8 16 lj/cut 0.239000 4.256000 4.777198
pair_coeff 9 16 lj/cut 0.239000 3.156000 3.542490
pair_coeff 10 16 lj/cut 0.239000 3.906000 4.384337
pair_coeff 11 16 lj/cut 0.239000 3.406000 3.823106
pair_coeff 12 16 lj/cut 0.239000 4.256000 4.777198
pair_coeff 13 16 lj/cut 0.239000 3.156000 3.542490
pair_coeff 14 16 lj/cut 0.239000 3.906000 4.384337
pair_coeff 2 17 lj/cut 0.239000 5.122500 5.749812
pair_coeff 3 17 lj/cut 0.239000 4.722500 5.300827
pair_coeff 4 17 lj/cut 0.239000 5.572500 6.254920
pair_coeff 5 17 lj/cut 0.239000 4.472500 5.020212
pair_coeff 6 17 lj/cut 0.239000 5.222500 5.862058
pair_coeff 7 17 lj/cut 0.239000 4.722500 5.300827
pair_coeff 8 17 lj/cut 0.239000 5.572500 6.254920
pair_coeff 9 17 lj/cut 0.239000 4.472500 5.020212
pair_coeff 10 17 lj/cut 0.239000 5.222500 5.862058
pair_coeff 11 17 lj/cut 0.239000 4.722500 5.300827
pair_coeff 12 17 lj/cut 0.239000 5.572500 6.254920
pair_coeff 13 17 lj/cut 0.239000 4.472500 5.020212
pair_coeff 14 17 lj/cut 0.239000 5.222500 5.862058

# Specify parameters for the neighbor list
neighbor	4.0 multi
neigh_modify    check yes

# A timestep of 0.02 ps
timestep 10.0

# Initialize velocities from a Gaussian distribution
velocity all create ${T} ${random} rot yes mom yes dist gaussian
velocity all create 300 ${random} rot yes mom yes dist gaussian
velocity all create 300 12345 rot yes mom yes dist gaussian

# Calculating the different components of the non-bonded energy
compute edna all pair 3spn2
variable ebp equal c_edna[1] # Base pairing energy
variable ecstk equal c_edna[2] # Cross stacking energy
variable eexcl equal c_edna[3] # Excluded volume energy
variable dna_ecoul equal c_edna[4] # DNA coulombic energy
variable nbp equal c_edna[5] # Number of base pairs

# Specifying the frequency of thermodynamic output
thermo 2000
thermo_style custom step v_nbp ebond eangle edihed v_ebp v_ecstk v_eexcl v_dna_ecoul temp

# Specifying a Langevin integrator to perform a simulation in the NVT ensemble
fix 1 all langevin ${T} ${T} 500 ${random} gjf yes
fix 1 all langevin 300 ${T} 500 ${random} gjf yes
fix 1 all langevin 300 300 500 ${random} gjf yes
fix 1 all langevin 300 300 500 12345 gjf yes
fix 2 all nve

# Write configuration to file
dump 1 all xyz 2000 traj.xyz

# Run X number of steps
run 50000
PPPM initialization ...
  G vector (1/distance) = 0.0895733
  grid = 18 18 18
  stencil order = 5
  estimated absolute RMS force accuracy = 2.14723e-05
  estimated relative force accuracy = 6.46631e-08
  using double precision FFTs
  3d grid and FFT values/proc = 12167 5832
Memory usage per processor = 10.7505 Mbytes
Step nbp E_bond E_angle E_dihed ebp ecstk eexcl dna_ecou Temp 
       0           32 0.0020119571   -196.16379   -172.08407   -145.07625   -38.325896            0            0          300 
    2000           28    24.833429   -120.51641   -154.50474   -129.99227   -30.024964    0.3988498            0    302.02452 
    4000           28    27.962623   -114.28885   -150.00268   -129.71552   -28.995696   0.45429926            0    298.11368 
    6000           25    30.200384   -114.12998   -152.61589   -125.51268   -27.764131    0.2948592            0    297.88149 
    8000           31    22.897905   -121.18919   -154.72414   -132.49007   -29.154319   0.11374984            0    300.72932 
   10000           27    33.949608   -103.91835   -156.04695   -128.04252   -26.918906    0.2230035            0    294.41874 
   12000           28     28.94516   -104.20353   -151.31043   -128.90075   -29.170982    0.4181501            0    296.34369 
   14000           29    17.508701    -120.3271    -156.9033   -131.93291   -30.255607   0.14310025            0    280.70682 
   16000           28     30.66824   -103.21156   -152.53991   -131.11673    -24.03239   0.71210424            0    305.25494 
   18000           26    20.257843   -124.63037   -155.57863   -124.65005    -29.20652   0.37199859            0    299.41249 
   20000           31    25.710555   -108.67291   -156.45074    -135.9292    -31.67751  0.072080781            0    295.04083 
   22000           25    25.693115   -111.10636   -154.12045   -119.94235   -27.627071   0.63141951            0    288.92582 
   24000           28    23.736626   -116.22423   -154.23755    -130.4932   -26.746541   0.91669691            0    285.18509 
   26000           26     31.48246   -121.25756   -157.34731   -129.72051    -28.74605   0.55972353            0    288.38374 
   28000           23     32.12592     -112.033   -154.20993   -121.34947   -25.052812   0.24545773            0    284.26435 
   30000           27     21.14953   -119.66142    -155.7975   -125.96343   -27.541547   0.39087454            0    297.07519 
   32000           23    25.410936   -106.99358   -155.39131   -121.24673   -28.349689   0.20740663            0    295.31344 
   34000           26    28.201839   -115.41808   -152.69082   -127.71507   -28.991187   0.41941415            0    299.64951 
   36000           26    23.048153   -114.35036   -152.59591    -126.3597    -28.66296  0.057121689            0    300.56062 
   38000           24    15.476929   -114.42714   -154.03757   -120.12089   -27.212619   0.37590749            0    300.03762 
   40000           17    19.337789   -117.13683   -156.63706   -113.29935   -24.884447   0.87506761            0    306.87451 
   42000           22    29.359265   -117.61453    -154.2549   -120.60343   -28.435125   0.11437328            0    286.97812 
   44000           24    21.305935   -107.31458   -151.08565    -124.6678   -26.896777   0.14262782            0    295.24052 
   46000           25    31.639742   -118.35432   -151.01891   -122.54309   -26.002412   0.06933115            0    300.59536 
   48000           30    29.698142   -106.94502   -153.19634    -129.3815   -27.961041   0.22641531            0    291.04982 
   50000           20    20.895291   -114.10238   -150.45034   -113.97083   -25.839407   0.51817898            0    297.98112 
Loop time of 167.392 on 1 procs for 50000 steps with 1079 atoms

Pair  time (%) = 41.3318 (24.6916)
Bond  time (%) = 4.92943 (2.94484)
Kspce time (%) = 104.423 (62.3824)
Neigh time (%) = 9.71773 (5.80537)
Comm  time (%) = 2.3171 (1.38424)
Outpt time (%) = 0.042927 (0.0256446)
Other time (%) = 4.62988 (2.76589)

FFT time (% of Kspce) = 57.9733 (55.5177)
FFT Gflps 3d (1d only) = 0.872297 1.0662

Nlocal:    1079 ave 1079 max 1079 min
Histogram: 1 0 0 0 0 0 0 0 0 0
Nghost:    1197 ave 1197 max 1197 min
Histogram: 1 0 0 0 0 0 0 0 0 0
Neighs:    9625 ave 9625 max 9625 min
Histogram: 1 0 0 0 0 0 0 0 0 0

Total # of neighbors = 9625
Ave neighs/atom = 8.9203
Ave special neighs/atom = 1.25672
Neighbor list builds = 2948
Dangerous builds = 0

Please see the log.cite file for references relevant to this simulation

